(set-logic QF_LRA)
(declare-fun T1 () Real )
(declare-fun T2 () Real )
(declare-fun T3 () Real )
(declare-fun T4 () Real )
(declare-fun T5 () Real )
(declare-fun T6 () Real )
(declare-fun Z () Real )
(assert ( and 
(or ( <= ( + T1 86 ) T2 ) ( <= ( + T2 44 ) T1 ) )
(or ( <= ( + T1 149 )  ( + T2 44 ) ) ( <= ( + T2 109 )( + T1 86 ) ) )
(or ( <= ( + T1 185 )  ( + T2 109 ) ) ( <= ( + T2 153 )( + T1 149 ) ) )
(or ( <= ( + T1 224 )  ( + T2 153 ) ) ( <= ( + T2 215 )( + T1 185 ) ) )
(or ( <= ( + T1 86 ) T3 ) ( <= ( + T3 31 ) T1 ) )
(or ( <= ( + T1 149 )  ( + T3 31 ) ) ( <= ( + T3 41 )( + T1 86 ) ) )
(or ( <= ( + T1 185 )  ( + T3 41 ) ) ( <= ( + T3 47 )( + T1 149 ) ) )
(or ( <= ( + T1 224 )  ( + T3 47 ) ) ( <= ( + T3 59 )( + T1 185 ) ) )
(or ( <= ( + T1 86 ) T4 ) ( <= ( + T4 63 ) T1 ) )
(or ( <= ( + T1 149 )  ( + T4 63 ) ) ( <= ( + T4 113 )( + T1 86 ) ) )
(or ( <= ( + T1 185 )  ( + T4 113 ) ) ( <= ( + T4 114 )( + T1 149 ) ) )
(or ( <= ( + T1 224 )  ( + T4 114 ) ) ( <= ( + T4 152 )( + T1 185 ) ) )
(or ( <= ( + T1 86 ) T5 ) ( <= ( + T5 62 ) T1 ) )
(or ( <= ( + T1 149 )  ( + T5 62 ) ) ( <= ( + T5 65 )( + T1 86 ) ) )
(or ( <= ( + T1 185 )  ( + T5 65 ) ) ( <= ( + T5 141 )( + T1 149 ) ) )
(or ( <= ( + T1 224 )  ( + T5 141 ) ) ( <= ( + T5 226 )( + T1 185 ) ) )
(or ( <= ( + T1 86 ) T6 ) ( <= ( + T6 98 ) T1 ) )
(or ( <= ( + T1 149 )  ( + T6 98 ) ) ( <= ( + T6 134 )( + T1 86 ) ) )
(or ( <= ( + T1 185 )  ( + T6 134 ) ) ( <= ( + T6 149 )( + T1 149 ) ) )
(or ( <= ( + T1 224 )  ( + T6 149 ) ) ( <= ( + T6 198 )( + T1 185 ) ) )
(or ( <= ( + T2 44 ) T3 ) ( <= ( + T3 31 ) T2 ) )
(or ( <= ( + T2 109 )  ( + T3 31 ) ) ( <= ( + T3 41 )( + T2 44 ) ) )
(or ( <= ( + T2 153 )  ( + T3 41 ) ) ( <= ( + T3 47 )( + T2 109 ) ) )
(or ( <= ( + T2 215 )  ( + T3 47 ) ) ( <= ( + T3 59 )( + T2 153 ) ) )
(or ( <= ( + T2 44 ) T4 ) ( <= ( + T4 63 ) T2 ) )
(or ( <= ( + T2 109 )  ( + T4 63 ) ) ( <= ( + T4 113 )( + T2 44 ) ) )
(or ( <= ( + T2 153 )  ( + T4 113 ) ) ( <= ( + T4 114 )( + T2 109 ) ) )
(or ( <= ( + T2 215 )  ( + T4 114 ) ) ( <= ( + T4 152 )( + T2 153 ) ) )
(or ( <= ( + T2 44 ) T5 ) ( <= ( + T5 62 ) T2 ) )
(or ( <= ( + T2 109 )  ( + T5 62 ) ) ( <= ( + T5 65 )( + T2 44 ) ) )
(or ( <= ( + T2 153 )  ( + T5 65 ) ) ( <= ( + T5 141 )( + T2 109 ) ) )
(or ( <= ( + T2 215 )  ( + T5 141 ) ) ( <= ( + T5 226 )( + T2 153 ) ) )
(or ( <= ( + T2 44 ) T6 ) ( <= ( + T6 98 ) T2 ) )
(or ( <= ( + T2 109 )  ( + T6 98 ) ) ( <= ( + T6 134 )( + T2 44 ) ) )
(or ( <= ( + T2 153 )  ( + T6 134 ) ) ( <= ( + T6 149 )( + T2 109 ) ) )
(or ( <= ( + T2 215 )  ( + T6 149 ) ) ( <= ( + T6 198 )( + T2 153 ) ) )
(or ( <= ( + T3 31 ) T4 ) ( <= ( + T4 63 ) T3 ) )
(or ( <= ( + T3 41 )  ( + T4 63 ) ) ( <= ( + T4 113 )( + T3 31 ) ) )
(or ( <= ( + T3 47 )  ( + T4 113 ) ) ( <= ( + T4 114 )( + T3 41 ) ) )
(or ( <= ( + T3 59 )  ( + T4 114 ) ) ( <= ( + T4 152 )( + T3 47 ) ) )
(or ( <= ( + T3 31 ) T5 ) ( <= ( + T5 62 ) T3 ) )
(or ( <= ( + T3 41 )  ( + T5 62 ) ) ( <= ( + T5 65 )( + T3 31 ) ) )
(or ( <= ( + T3 47 )  ( + T5 65 ) ) ( <= ( + T5 141 )( + T3 41 ) ) )
(or ( <= ( + T3 59 )  ( + T5 141 ) ) ( <= ( + T5 226 )( + T3 47 ) ) )
(or ( <= ( + T3 31 ) T6 ) ( <= ( + T6 98 ) T3 ) )
(or ( <= ( + T3 41 )  ( + T6 98 ) ) ( <= ( + T6 134 )( + T3 31 ) ) )
(or ( <= ( + T3 47 )  ( + T6 134 ) ) ( <= ( + T6 149 )( + T3 41 ) ) )
(or ( <= ( + T3 59 )  ( + T6 149 ) ) ( <= ( + T6 198 )( + T3 47 ) ) )
(or ( <= ( + T4 63 ) T5 ) ( <= ( + T5 62 ) T4 ) )
(or ( <= ( + T4 113 )  ( + T5 62 ) ) ( <= ( + T5 65 )( + T4 63 ) ) )
(or ( <= ( + T4 114 )  ( + T5 65 ) ) ( <= ( + T5 141 )( + T4 113 ) ) )
(or ( <= ( + T4 152 )  ( + T5 141 ) ) ( <= ( + T5 226 )( + T4 114 ) ) )
(or ( <= ( + T4 63 ) T6 ) ( <= ( + T6 98 ) T4 ) )
(or ( <= ( + T4 113 )  ( + T6 98 ) ) ( <= ( + T6 134 )( + T4 63 ) ) )
(or ( <= ( + T4 114 )  ( + T6 134 ) ) ( <= ( + T6 149 )( + T4 113 ) ) )
(or ( <= ( + T4 152 )  ( + T6 149 ) ) ( <= ( + T6 198 )( + T4 114 ) ) )
(or ( <= ( + T5 62 ) T6 ) ( <= ( + T6 98 ) T5 ) )
(or ( <= ( + T5 65 )  ( + T6 98 ) ) ( <= ( + T6 134 )( + T5 62 ) ) )
(or ( <= ( + T5 141 )  ( + T6 134 ) ) ( <= ( + T6 149 )( + T5 65 ) ) )
(or ( <= ( + T5 226 )  ( + T6 149 ) ) ( <= ( + T6 198 )( + T5 141 ) ) )
( <= ( + T1 224 ) Z)
( <= ( + T2 215 ) Z)
( <= ( + T3 59 ) Z)
( <= ( + T4 152 ) Z)
( <= ( + T5 226 ) Z)
( <= ( + T6 198 ) Z)
( >= T1 0 )
( >= T2 0 )
( >= T3 0 )
( >= T4 0 )
( >= T5 0 )
( >= T6 0 )
) )
(minimize Z)
(check-sat)